c ca-CondMat: Collaboration network of Arxiv Condensed Matter category (there is an edge if authors coauthored at least one paper) https://snap.stanford.edu/data/ca-CondMat.html
p edge 417 423
e 1 254
e 2 244
e 3 144
e 4 62
e 5 145
e 6 306
e 7 343
e 7 33
e 7 300
e 7 228
e 7 301
e 7 255
e 8 178
e 9 157
e 9 414
e 10 95
e 10 109
e 11 168
e 11 381
e 12 135
e 12 343
e 12 256
e 13 292
e 13 349
e 13 341
e 13 205
e 13 360
e 13 86
e 13 413
e 14 205
e 15 78
e 15 235
e 15 339
e 16 417
e 16 109
e 17 408
e 17 228
e 17 97
e 17 143
e 17 92
e 17 137
e 17 74
e 17 191
e 17 20
e 17 174
e 17 103
e 18 154
e 19 31
e 21 190
e 22 109
e 23 236
e 24 328
e 25 336
e 26 297
e 27 90
e 28 353
e 29 61
e 30 216
e 31 230
e 31 249
e 31 203
e 31 263
e 31 320
e 31 62
e 31 181
e 31 314
e 31 73
e 32 412
e 32 242
e 32 336
e 32 195
e 32 75
e 33 164
e 34 76
e 35 59
e 36 62
e 36 120
e 37 255
e 38 375
e 38 109
e 39 62
e 40 162
e 40 360
e 40 296
e 40 283
e 41 58
e 42 330
e 43 83
e 44 305
e 44 232
e 45 377
e 45 178
e 45 105
e 46 246
e 46 273
e 47 307
e 48 134
e 49 62
e 50 135
e 51 308
e 52 358
e 53 158
e 53 101
e 54 142
e 54 387
e 54 271
e 55 171
e 56 366
e 57 164
e 57 119
e 58 107
e 59 212
e 59 141
e 60 130
e 60 401
e 61 255
e 61 358
e 61 62
e 61 171
e 62 391
e 62 363
e 62 407
e 62 258
e 62 215
e 62 134
e 62 217
e 62 311
e 62 201
e 62 68
e 62 108
e 63 339
e 64 157
e 65 256
e 66 127
e 67 377
e 69 213
e 70 331
e 71 308
e 72 347
e 75 101
e 75 376
e 76 123
e 77 266
e 78 216
e 79 104
e 79 123
e 80 386
e 81 183
e 81 100
e 82 378
e 82 325
e 83 151
e 84 87
e 85 213
e 86 176
e 86 383
e 87 110
e 88 250
e 88 347
e 89 328
e 90 167
e 91 108
e 92 386
e 93 149
e 94 109
e 96 226
e 98 317
e 98 325
e 99 109
e 101 307
e 101 366
e 101 315
e 101 374
e 101 175
e 101 396
e 102 257
e 102 281
e 103 399
e 106 172
e 107 387
e 108 332
e 108 329
e 108 242
e 109 318
e 109 207
e 109 378
e 110 303
e 110 408
e 111 380
e 112 273
e 113 183
e 114 207
e 114 220
e 114 235
e 115 213
e 116 389
e 117 127
e 117 121
e 117 240
e 117 412
e 118 328
e 119 409
e 119 146
e 119 185
e 119 188
e 120 132
e 121 285
e 122 386
e 123 178
e 123 415
e 123 339
e 123 234
e 123 399
e 124 369
e 124 130
e 124 225
e 125 257
e 126 354
e 127 221
e 128 332
e 129 237
e 129 357
e 130 245
e 131 244
e 133 332
e 134 278
e 134 233
e 134 335
e 135 282
e 135 309
e 136 245
e 138 172
e 138 272
e 139 407
e 140 157
e 141 247
e 141 244
e 142 205
e 143 150
e 143 338
e 144 154
e 145 212
e 147 314
e 148 308
e 149 392
e 150 294
e 151 358
e 152 228
e 153 351
e 154 213
e 154 197
e 154 390
e 155 217
e 156 189
e 157 310
e 157 190
e 157 291
e 157 354
e 158 229
e 158 210
e 158 167
e 159 165
e 160 339
e 160 342
e 161 200
e 163 353
e 164 189
e 164 267
e 165 334
e 165 278
e 166 347
e 169 350
e 169 186
e 170 322
e 170 268
e 172 371
e 173 358
e 176 239
e 177 268
e 177 402
e 177 351
e 178 346
e 179 403
e 180 382
e 180 204
e 180 216
e 182 205
e 183 260
e 183 236
e 184 319
e 187 331
e 192 254
e 193 314
e 194 324
e 194 211
e 195 253
e 196 328
e 197 268
e 198 370
e 199 205
e 200 255
e 202 270
e 205 252
e 205 276
e 205 255
e 205 337
e 206 282
e 206 353
e 207 370
e 207 293
e 208 328
e 209 379
e 210 299
e 211 277
e 211 395
e 212 351
e 213 312
e 213 284
e 213 348
e 213 323
e 213 319
e 213 398
e 214 326
e 214 410
e 214 226
e 216 356
e 216 221
e 218 253
e 219 377
e 222 273
e 222 243
e 223 272
e 224 385
e 226 269
e 226 400
e 227 280
e 228 279
e 228 260
e 228 405
e 231 358
e 232 379
e 238 272
e 239 362
e 241 291
e 244 357
e 244 373
e 245 272
e 248 338
e 248 381
e 249 360
e 251 340
e 251 372
e 254 404
e 255 306
e 255 361
e 255 257
e 255 260
e 255 413
e 255 291
e 259 347
e 260 344
e 260 287
e 261 332
e 262 331
e 264 321
e 265 336
e 266 411
e 266 272
e 268 269
e 268 369
e 270 346
e 272 417
e 272 397
e 273 295
e 273 416
e 273 315
e 274 288
e 274 385
e 274 344
e 275 385
e 277 328
e 278 286
e 278 365
e 280 303
e 280 298
e 289 328
e 290 332
e 291 355
e 291 393
e 295 371
e 295 352
e 297 394
e 302 328
e 304 328
e 306 406
e 307 330
e 307 350
e 307 331
e 308 392
e 308 386
e 312 372
e 312 359
e 313 389
e 316 391
e 321 408
e 322 328
e 327 347
e 328 345
e 328 403
e 328 368
e 328 388
e 328 385
e 333 389
e 336 394
e 336 380
e 338 369
e 339 367
e 347 372
e 351 364
e 358 404
e 358 379
e 366 384
e 389 413
l 206
t 27 237
